%As
as_len = 30;
as = array2d(1..as_len,1..2,[
152,44,
61,41,
46,32,
120,121,
56,163,
183,90,
199,65,
13,3,
83,73,
35,59,
95,146,
134,165,
190,103,
1,2,
26,109,
62,183,
102,74,
128,117,
172,184,
141,195,
150,119,
158,142,
110,91,
103,161,
27,89,
21,101,
148,48,
63,95,
133,147,
170,138,
]);
% Makespan
makespan = 28;
% Rel:
rel_len = 205;
rel = [
{1,2,16}, %	1
{2,3,1,17}, %	2
{3,4,2,18}, %	3
{4,5,3,19}, %	4
{5,6,4,20}, %	5
{6,7,5,21}, %	6
{7,8,6,22}, %	7
{8,9,7}, %	8
{9,10,8}, %	9
{10,9}, %	10
{11,12,24}, %	11
{12,13,11,25}, %	12
{13,14,12,26}, %	13
{14,15,13}, %	14
{15,14,27}, %	15
{16,17,1}, %	16
{17,18,16,2,28}, %	17
{18,19,17,3,29}, %	18
{19,20,18,4}, %	19
{20,21,19,5,30}, %	20
{21,22,20,6,31}, %	21
{22,21,7,32}, %	22
{23,24,35}, %	23
{24,25,23,11,36}, %	24
{25,26,24,12,37}, %	25
{26,25,13,38}, %	26
{27,15}, %	27
{28,29,17,40}, %	28
{29,28,18,41}, %	29
{30,31,20,43}, %	30
{31,32,30,21,44}, %	31
{32,31,22}, %	32
{33,34,46}, %	33
{34,35,33,47}, %	34
{35,36,34,23,48}, %	35
{36,37,35,24,49}, %	36
{37,38,36,25,50}, %	37
{38,37,26,51}, %	38
{39,40,53}, %	39
{40,41,39,28,54}, %	40
{41,42,40,29,55}, %	41
{42,43,41}, %	42
{43,44,42,30,56}, %	43
{44,43,31,57}, %	44
{45,46,59}, %	45
{46,47,45,33}, %	46
{47,48,46,34,60}, %	47
{48,49,47,35,61}, %	48
{49,50,48,36}, %	49
{50,51,49,37,62}, %	50
{51,52,50,38,63}, %	51
{52,51}, %	52
{53,54,39,64}, %	53
{54,55,53,40,65}, %	54
{55,54,41,66}, %	55
{56,57,43}, %	56
{57,58,56,44}, %	57
{58,59,57,68}, %	58
{59,58,45,69}, %	59
{60,61,47,71}, %	60
{61,60,48}, %	61
{62,63,50,72}, %	62
{63,62,51}, %	63
{64,65,53}, %	64
{65,66,64,54,75}, %	65
{66,67,65,55,76}, %	66
{67,66,77}, %	67
{68,69,58,80}, %	68
{69,70,68,59,81}, %	69
{70,71,69,82}, %	70
{71,70,60,83}, %	71
{72,62,86}, %	72
{73,74,88}, %	73
{74,73}, %	74
{75,76,65,90}, %	75
{76,77,75,66,91}, %	76
{77,78,76,67,92}, %	77
{78,79,77,93}, %	78
{79,80,78,94}, %	79
{80,81,79,68,95}, %	80
{81,82,80,69}, %	81
{82,83,81,70}, %	82
{83,84,82,71,96}, %	83
{84,85,83,97}, %	84
{85,86,84,98}, %	85
{86,87,85,72,99}, %	86
{87,88,86,100}, %	87
{88,87,73}, %	88
{89,90,102}, %	89
{90,91,89,75,103}, %	90
{91,92,90,76,104}, %	91
{92,93,91,77,105}, %	92
{93,94,92,78,106}, %	93
{94,95,93,79,107}, %	94
{95,94,80}, %	95
{96,97,83,110}, %	96
{97,98,96,84,111}, %	97
{98,99,97,85,112}, %	98
{99,100,98,86,113}, %	99
{100,99,87,114}, %	100
{101,116}, %	101
{102,103,89,117}, %	102
{103,104,102,90,118}, %	103
{104,105,103,91,119}, %	104
{105,106,104,92,120}, %	105
{106,107,105,93,121}, %	106
{107,106,94}, %	107
{108,109,123}, %	108
{109,110,108}, %	109
{110,111,109,96,124}, %	110
{111,112,110,97,125}, %	111
{112,113,111,98,126}, %	112
{113,114,112,99}, %	113
{114,115,113,100,127}, %	114
{115,116,114,128}, %	115
{116,115,101}, %	116
{117,118,102,129}, %	117
{118,119,117,103,130}, %	118
{119,120,118,104}, %	119
{120,121,119,105,131}, %	120
{121,120,106,132}, %	121
{122,123,133}, %	122
{123,122,108,134}, %	123
{124,125,110,136}, %	124
{125,126,124,111,137}, %	125
{126,125,112,138}, %	126
{127,128,114,140}, %	127
{128,127,115,141}, %	128
{129,130,117}, %	129
{130,129,118}, %	130
{131,132,120,143}, %	131
{132,131,121,144}, %	132
{133,134,122,146}, %	133
{134,135,133,123,147}, %	134
{135,136,134,148}, %	135
{136,137,135,124,149}, %	136
{137,138,136,125,150}, %	137
{138,139,137,126,151}, %	138
{139,140,138,152}, %	139
{140,141,139,127,153}, %	140
{141,140,128}, %	141
{142,143,156}, %	142
{143,144,142,131,157}, %	143
{144,145,143,132,158}, %	144
{145,146,144}, %	145
{146,147,145,133,159}, %	146
{147,148,146,134,160}, %	147
{148,149,147,135}, %	148
{149,150,148,136,161}, %	149
{150,151,149,137,162}, %	150
{151,152,150,138,163}, %	151
{152,153,151,139}, %	152
{153,152,140,164}, %	153
{154,166}, %	154
{155,156}, %	155
{156,157,155,142}, %	156
{157,158,156,143,168}, %	157
{158,157,144,169}, %	158
{159,160,146,171}, %	159
{160,159,147,172}, %	160
{161,162,149,174}, %	161
{162,163,161,150,175}, %	162
{163,162,151,176}, %	163
{164,165,153}, %	164
{165,166,164,178}, %	165
{166,165,154,179}, %	166
{167,180}, %	167
{168,169,157,182}, %	168
{169,170,168,158,183}, %	169
{170,171,169,184}, %	170
{171,172,170,159,185}, %	171
{172,173,171,160,186}, %	172
{173,174,172,187}, %	173
{174,175,173,161,188}, %	174
{175,176,174,162,189}, %	175
{176,177,175,163,190}, %	176
{177,176,191}, %	177
{178,179,165,192}, %	178
{179,178,166,193}, %	179
{180,167,194}, %	180
{181,182,196}, %	181
{182,183,181,168}, %	182
{183,184,182,169}, %	183
{184,185,183,170}, %	184
{185,186,184,171,197}, %	185
{186,187,185,172,198}, %	186
{187,188,186,173,199}, %	187
{188,189,187,174,200}, %	188
{189,190,188,175,201}, %	189
{190,191,189,176,202}, %	190
{191,190,177,203}, %	191
{192,193,178,204}, %	192
{193,192,179,205}, %	193
{194,195,180}, %	194
{195,196,194}, %	195
{196,195,181}, %	196
{197,198,185}, %	197
{198,199,197,186}, %	198
{199,200,198,187}, %	199
{200,201,199,188}, %	200
{201,202,200,189}, %	201
{202,203,201,190}, %	202
{203,202,191}, %	203
{204,205,192}, %	204
{205,204,193}, %	205
];
k=30;
